Sat 19 May 19:30:50 CEST 2018
CPXPARAM_TimeLimit                               45
CPXPARAM_Threads                                 1
CPXPARAM_MIP_Strategy_CallbackReducedLP          0
Tried aggregator 5 times.
MIP Presolve eliminated 5453 rows and 4880 columns.
MIP Presolve modified 17379 coefficients.
Aggregator did 31333 substitutions.
Reduced MIP has 46430 rows, 34020 columns, and 102634 nonzeros.
Reduced MIP has 30514 binaries, 12 generals, 0 SOSs, and 4266 indicators.
Presolve time = 0.80 sec. (2520.20 ticks)
Probing time = 0.38 sec. (169.83 ticks)
Tried aggregator 3 times.
Aggregator did 21358 substitutions.
Reduced MIP has 25072 rows, 12662 columns, and 59918 nonzeros.
Reduced MIP has 9156 binaries, 3506 generals, 0 SOSs, and 4266 indicators.
Presolve time = 0.12 sec. (164.59 ticks)
Probing time = 0.17 sec. (121.62 ticks)
Tried aggregator 1 time.
Reduced MIP has 25072 rows, 12662 columns, and 59918 nonzeros.
Reduced MIP has 9156 binaries, 3506 generals, 0 SOSs, and 4266 indicators.
Presolve time = 0.05 sec. (51.39 ticks)
Probing time = 0.01 sec. (9.28 ticks)
Clique table members: 806253.
MIP emphasis: balance optimality and feasibility.
MIP search method: dynamic search.
Parallel mode: none, using 1 thread.
Root relaxation solution time = 0.25 sec. (255.19 ticks)

        Nodes                                         Cuts/
   Node  Left     Objective  IInf  Best Integer    Best Bound    ItCnt     Gap

      0     0        0.0000  6618                      0.0000     1577         
      0     0        0.0000  3505               Cliques: 6368     5377         
      0     0        0.0000  3174               Cliques: 6368     5732         
      0     0        0.0000  3108                   Cuts: 617     6919         
      0     0        0.0000  2086                   Cuts: 133     7664         
      0     0        0.0000  2567                    Cuts: 98     8139         

Clique cuts applied:  10254
Implied bound cuts applied:  325
Zero-half cuts applied:  11
Gomory fractional cuts applied:  2

Root node processing (before b&c):
  Real time             =   45.01 sec. (63410.66 ticks)
Sequential b&c:
  Real time             =    0.00 sec. (0.00 ticks)
                          ------------
Total (root+branch&cut) =   45.01 sec. (63410.66 ticks)
